8
2147483647 47 11 59 58 40 24 14 
47 2147483647 83 31 38 33 59 55 
11 83 2147483647 41 15 88 60 76 
59 31 41 2147483647 20 61 41 17 
58 38 15 20 2147483647 49 9 39 
40 33 88 61 49 2147483647 2 32 
24 59 60 41 9 2 2147483647 70 
14 55 76 17 39 32 70 2147483647 
